c Generated map
c Size: 9 * 9, weights in range: 1 to 10, walls: False, with ratio 0.0
c dim 2 of 8
c
p sp 81 144
c graph contains 81 nodes and 144 arcs
c
a 1 10 6
a 10 1 6
a 1 2 6
a 2 1 6
a 2 11 5
a 11 2 5
a 2 3 5
a 3 2 5
a 3 12 2
a 12 3 2
a 3 4 8
a 4 3 8
a 4 13 9
a 13 4 9
a 4 5 10
a 5 4 10
a 5 14 1
a 14 5 1
a 5 6 4
a 6 5 4
a 6 15 4
a 15 6 4
a 6 7 10
a 7 6 10
a 7 16 10
a 16 7 10
a 7 8 8
a 8 7 8
a 8 17 9
a 17 8 9
a 8 9 8
a 9 8 8
a 9 18 10
a 18 9 10
a 10 19 10
a 19 10 10
a 10 11 3
a 11 10 3
a 11 20 5
a 20 11 5
a 11 12 1
a 12 11 1
a 12 21 3
a 21 12 3
a 12 13 9
a 13 12 9
a 13 22 4
a 22 13 4
a 13 14 8
a 14 13 8
a 14 23 1
a 23 14 1
a 14 15 8
a 15 14 8
a 15 24 4
a 24 15 4
a 15 16 5
a 16 15 5
a 16 25 10
a 25 16 10
a 16 17 7
a 17 16 7
a 17 26 9
a 26 17 9
a 17 18 3
a 18 17 3
a 18 27 7
a 27 18 7
a 19 28 6
a 28 19 6
a 19 20 8
a 20 19 8
a 20 29 10
a 29 20 10
a 20 21 1
a 21 20 1
a 21 30 8
a 30 21 8
a 21 22 9
a 22 21 9
a 22 31 1
a 31 22 1
a 22 23 10
a 23 22 10
a 23 32 10
a 32 23 10
a 23 24 2
a 24 23 2
a 24 33 2
a 33 24 2
a 24 25 3
a 25 24 3
a 25 34 1
a 34 25 1
a 25 26 4
a 26 25 4
a 26 35 7
a 35 26 7
a 26 27 10
a 27 26 10
a 27 36 4
a 36 27 4
a 28 37 3
a 37 28 3
a 28 29 4
a 29 28 4
a 29 38 6
a 38 29 6
a 29 30 8
a 30 29 8
a 30 39 7
a 39 30 7
a 30 31 6
a 31 30 6
a 31 40 4
a 40 31 4
a 31 32 4
a 32 31 4
a 32 41 8
a 41 32 8
a 32 33 6
a 33 32 6
a 33 42 10
a 42 33 10
a 33 34 3
a 34 33 3
a 34 43 5
a 43 34 5
a 34 35 1
a 35 34 1
a 35 44 4
a 44 35 4
a 35 36 2
a 36 35 2
a 36 45 5
a 45 36 5
a 37 46 2
a 46 37 2
a 37 38 7
a 38 37 7
a 38 47 4
a 47 38 4
a 38 39 8
a 39 38 8
a 39 48 4
a 48 39 4
a 39 40 5
a 40 39 5
a 40 49 1
a 49 40 1
a 40 41 8
a 41 40 8
a 41 50 4
a 50 41 4
a 41 42 4
a 42 41 4
a 42 51 8
a 51 42 8
a 42 43 2
a 43 42 2
a 43 52 9
a 52 43 9
a 43 44 6
a 44 43 6
a 44 53 6
a 53 44 6
a 44 45 7
a 45 44 7
a 45 54 8
a 54 45 8
a 46 55 4
a 55 46 4
a 46 47 8
a 47 46 8
a 47 56 4
a 56 47 4
a 47 48 4
a 48 47 4
a 48 57 9
a 57 48 9
a 48 49 9
a 49 48 9
a 49 58 8
a 58 49 8
a 49 50 6
a 50 49 6
a 50 59 3
a 59 50 3
a 50 51 4
a 51 50 4
a 51 60 4
a 60 51 4
a 51 52 3
a 52 51 3
a 52 61 10
a 61 52 10
a 52 53 1
a 53 52 1
a 53 62 8
a 62 53 8
a 53 54 2
a 54 53 2
a 54 63 10
a 63 54 10
a 55 64 1
a 64 55 1
a 55 56 10
a 56 55 10
a 56 65 2
a 65 56 2
a 56 57 9
a 57 56 9
a 57 66 5
a 66 57 5
a 57 58 10
a 58 57 10
a 58 67 2
a 67 58 2
a 58 59 10
a 59 58 10
a 59 68 9
a 68 59 9
a 59 60 1
a 60 59 1
a 60 69 7
a 69 60 7
a 60 61 8
a 61 60 8
a 61 70 7
a 70 61 7
a 61 62 9
a 62 61 9
a 62 71 7
a 71 62 7
a 62 63 4
a 63 62 4
a 63 72 9
a 72 63 9
a 64 73 1
a 73 64 1
a 64 65 8
a 65 64 8
a 65 74 3
a 74 65 3
a 65 66 8
a 66 65 8
a 66 75 10
a 75 66 10
a 66 67 10
a 67 66 10
a 67 76 7
a 76 67 7
a 67 68 3
a 68 67 3
a 68 77 8
a 77 68 8
a 68 69 7
a 69 68 7
a 69 78 8
a 78 69 8
a 69 70 9
a 70 69 9
a 70 79 7
a 79 70 7
a 70 71 4
a 71 70 4
a 71 80 6
a 80 71 6
a 71 72 9
a 72 71 9
a 72 81 10
a 81 72 10
a 73 74 5
a 74 73 5
a 74 75 10
a 75 74 10
a 75 76 2
a 76 75 2
a 76 77 9
a 77 76 9
a 77 78 2
a 78 77 2
a 78 79 2
a 79 78 2
a 79 80 4
a 80 79 4
a 80 81 2
a 81 80 2
